DATASET = "thpack7";
INSTANCE = "076";

WIDTH = 233;
HEIGHT = 220;
LENGTH = 587;

NO_OF_SHAPES = 20;
size = [|
  77,42,30 |
  98,45,28 |
  61,58,32 |
  92,77,61 |
  58,44,27 |
  108,72,50 |
  93,72,71 |
  111,49,30 |
  79,66,49 |
  85,74,39 |
  106,34,33 |
  113,91,76 |
  57,49,43 |
  103,80,27 |
  74,66,31 |
  112,66,29 |
  110,83,67 |
  119,56,36 |
  97,87,22 |
  53,31,25 |
|];

verticality = [|
  0,1,1 |
  0,1,1 |
  1,1,1 |
  1,1,1 |
  0,1,1 |
  0,1,1 |
  1,1,1 |
  0,1,1 |
  1,1,1 |
  0,1,1 |
  0,1,1 |
  1,1,1 |
  1,1,1 |
  0,0,1 |
  0,0,1 |
  0,0,1 |
  1,1,1 |
  0,1,1 |
  0,0,1 |
  0,1,1 |
|];

box_count = [
  6,
  3,
  3,
  4,
  4,
  7,
  8,
  5,
  5,
  3,
  5,
  11,
  9,
  4,
  7,
  4,
  4,
  1,
  8,
  4,
];
